TCS_Benchmarks/redos_fix/corpus3_output_distinct_1246_1245_8_0.txt
([A-Za-z_]+)(\s*)
([A-Za-z_]+)(\s*(\S*))(\s*)